NAME          DCAP_2_4_3_200_SS164
ROWS
 N  OBJ
 L  CON1
 L  CON2
 L  CON3
 L  CON4
 L  CON5
 L  CON6
 L  CON7
 L  CON8
 L  CON9
 L  CON10
 L  CON11
 L  CON12
 E  CON13
 E  CON14
 E  CON15
 E  CON16
 E  CON17
 E  CON18
 E  CON19
 E  CON20
 E  CON21
 E  CON22
 E  CON23
 E  CON24
COLUMNS
    x[1,1]    OBJ       6.180167      CON1      1.000000    
    x[1,1]    CON7      -1.000000     CON8      -1.000000   
    x[1,1]    CON9      -1.000000   
    x[1,2]    OBJ       6.563535      CON2      1.000000    
    x[1,2]    CON8      -1.000000     CON9      -1.000000   
    x[1,3]    OBJ       7.443064      CON3      1.000000    
    x[1,3]    CON9      -1.000000   
    x[2,1]    OBJ       6.732585      CON4      1.000000    
    x[2,1]    CON10     -1.000000     CON11     -1.000000   
    x[2,1]    CON12     -1.000000   
    x[2,2]    OBJ       5.039546      CON5      1.000000    
    x[2,2]    CON11     -1.000000     CON12     -1.000000   
    x[2,3]    OBJ       6.054841      CON6      1.000000    
    x[2,3]    CON12     -1.000000   
    MARKER    'MARKER'                'INTORG'
    u[1,1]    OBJ       48.076654     CON1      -1.000000   
    u[1,2]    OBJ       20.066487     CON2      -1.000000   
    u[1,3]    OBJ       32.230043     CON3      -1.000000   
    u[2,1]    OBJ       49.996186     CON4      -1.000000   
    u[2,2]    OBJ       49.466655     CON5      -1.000000   
    u[2,3]    OBJ       27.484319     CON6      -1.000000   
    y[1,1,1]  OBJ       7.752562      CON7      0.717824    
    y[1,1,1]  CON13     1.000000    
    y[1,1,2]  OBJ       7.278171      CON8      1.352085    
    y[1,1,2]  CON14     1.000000    
    y[1,1,3]  OBJ       6.076404      CON9      0.918848    
    y[1,1,3]  CON15     1.000000    
    y[1,2,1]  OBJ       5.171690      CON7      0.724765    
    y[1,2,1]  CON16     1.000000    
    y[1,2,2]  OBJ       7.215157      CON8      1.375267    
    y[1,2,2]  CON17     1.000000    
    y[1,2,3]  OBJ       9.944785      CON9      0.646458    
    y[1,2,3]  CON18     1.000000    
    y[1,3,1]  OBJ       8.133816      CON7      1.339393    
    y[1,3,1]  CON19     1.000000    
    y[1,3,2]  OBJ       9.837753      CON8      1.308396    
    y[1,3,2]  CON20     1.000000    
    y[1,3,3]  OBJ       5.359036      CON9      1.078070    
    y[1,3,3]  CON21     1.000000    
    y[1,4,1]  OBJ       7.620612      CON7      0.950425    
    y[1,4,1]  CON22     1.000000    
    y[1,4,2]  OBJ       7.230594      CON8      0.796785    
    y[1,4,2]  CON23     1.000000    
    y[1,4,3]  OBJ       8.463549      CON9      0.674320    
    y[1,4,3]  CON24     1.000000    
    y[2,1,1]  OBJ       8.161735      CON10     0.717824    
    y[2,1,1]  CON13     1.000000    
    y[2,1,2]  OBJ       8.908189      CON11     1.352085    
    y[2,1,2]  CON14     1.000000    
    y[2,1,3]  OBJ       6.707236      CON12     0.918848    
    y[2,1,3]  CON15     1.000000    
    y[2,2,1]  OBJ       7.448051      CON10     0.724765    
    y[2,2,1]  CON16     1.000000    
    y[2,2,2]  OBJ       7.414021      CON11     1.375267    
    y[2,2,2]  CON17     1.000000    
    y[2,2,3]  OBJ       8.253783      CON12     0.646458    
    y[2,2,3]  CON18     1.000000    
    y[2,3,1]  OBJ       7.490762      CON10     1.339393    
    y[2,3,1]  CON19     1.000000    
    y[2,3,2]  OBJ       9.830984      CON11     1.308396    
    y[2,3,2]  CON20     1.000000    
    y[2,3,3]  OBJ       7.284269      CON12     1.078070    
    y[2,3,3]  CON21     1.000000    
    y[2,4,1]  OBJ       9.322920      CON10     0.950425    
    y[2,4,1]  CON22     1.000000    
    y[2,4,2]  OBJ       5.807202      CON11     0.796785    
    y[2,4,2]  CON23     1.000000    
    y[2,4,3]  OBJ       6.828710      CON12     0.674320    
    y[2,4,3]  CON24     1.000000    
    z[1,1]    OBJ       594.053108    CON13     1.000000    
    z[1,2]    OBJ       945.159519    CON14     1.000000    
    z[1,3]    OBJ       625.907892    CON15     1.000000    
    z[2,1]    OBJ       589.880919    CON16     1.000000    
    z[2,2]    OBJ       994.439708    CON17     1.000000    
    z[2,3]    OBJ       821.225183    CON18     1.000000    
    z[3,1]    OBJ       992.233449    CON19     1.000000    
    z[3,2]    OBJ       907.242591    CON20     1.000000    
    z[3,3]    OBJ       966.492484    CON21     1.000000    
    z[4,1]    OBJ       659.289048    CON22     1.000000    
    z[4,2]    OBJ       986.841107    CON23     1.000000    
    z[4,3]    OBJ       523.571330    CON24     1.000000    
    MARKER    'MARKER'                 'INTEND'
RHS
    RHS       CON1      -0.000000     CON2      -0.000000   
    RHS       CON3      -0.000000     CON4      -0.000000   
    RHS       CON5      -0.000000     CON6      -0.000000   
    RHS       CON7      -0.000000     CON8      -0.000000   
    RHS       CON9      -0.000000     CON10     -0.000000   
    RHS       CON11     -0.000000     CON12     -0.000000   
    RHS       CON13     1.000000      CON14     1.000000    
    RHS       CON15     1.000000      CON16     1.000000    
    RHS       CON17     1.000000      CON18     1.000000    
    RHS       CON19     1.000000      CON20     1.000000    
    RHS       CON21     1.000000      CON22     1.000000    
    RHS       CON23     1.000000      CON24     1.000000    
BOUNDS
 BV BOUND     u[1,1]  
 BV BOUND     u[1,2]  
 BV BOUND     u[1,3]  
 BV BOUND     u[2,1]  
 BV BOUND     u[2,2]  
 BV BOUND     u[2,3]  
 BV BOUND     y[1,1,1]
 BV BOUND     y[1,1,2]
 BV BOUND     y[1,1,3]
 BV BOUND     y[1,2,1]
 BV BOUND     y[1,2,2]
 BV BOUND     y[1,2,3]
 BV BOUND     y[1,3,1]
 BV BOUND     y[1,3,2]
 BV BOUND     y[1,3,3]
 BV BOUND     y[1,4,1]
 BV BOUND     y[1,4,2]
 BV BOUND     y[1,4,3]
 BV BOUND     y[2,1,1]
 BV BOUND     y[2,1,2]
 BV BOUND     y[2,1,3]
 BV BOUND     y[2,2,1]
 BV BOUND     y[2,2,2]
 BV BOUND     y[2,2,3]
 BV BOUND     y[2,3,1]
 BV BOUND     y[2,3,2]
 BV BOUND     y[2,3,3]
 BV BOUND     y[2,4,1]
 BV BOUND     y[2,4,2]
 BV BOUND     y[2,4,3]
 BV BOUND     z[1,1]  
 BV BOUND     z[1,2]  
 BV BOUND     z[1,3]  
 BV BOUND     z[2,1]  
 BV BOUND     z[2,2]  
 BV BOUND     z[2,3]  
 BV BOUND     z[3,1]  
 BV BOUND     z[3,2]  
 BV BOUND     z[3,3]  
 BV BOUND     z[4,1]  
 BV BOUND     z[4,2]  
 BV BOUND     z[4,3]  
ENDATA
